(declare-const term_to_project_onto Real)
(assert (exists
         ((|x'?1| Int) (phi_x?2 Int) (rem?3 Int) (phi_x?4 Int) (rem?5 Int)
            (rem?6 Int) (phi_x?7 Int) (rem?8 Int) (phi_x?9 Int) (rem?10 Int)
            (rem?11 Int) (phi_x?12 Int) (rem?13 Int) (rem?14 Int)
            (phi_x?15 Int) (rem?16 Int) (phi_x?17 Int) (rem?18 Int)
            (y?19 Int) (x?20 Int))
         (and (<= (- y?19) 0) (<= (+ x?20 -98) 0)
                (or (and (or (<= y?19 0)
                               (and (<= (- rem?18) 0)
                                      (or (<= (+ rem?18 1) 0)
                                            (<= (+ (- rem?18) 1) 0))
                                      (or (<= (+ rem?18 -1) 0)
                                            (<= (+ rem?18 1) 0))
                                      (is_int (/ (+ y?19 (- rem?18)) 2))))
                           (= (+ (- phi_x?17) x?20 1) 0))
                      (and (is_int (/ y?19 2)) (<= (- y?19) 0)
                             (= (+ (- phi_x?17) x?20 2) 0)))
                (or (and (or (<= y?19 0)
                               (and (<= (- rem?16) 0)
                                      (or (<= (+ rem?16 1) 0)
                                            (<= (+ (- rem?16) 1) 0))
                                      (or (<= (+ rem?16 -1) 0)
                                            (<= (+ rem?16 1) 0))
                                      (is_int (/ (+ y?19 (- rem?16)) 2))))
                           (= (+ (- phi_x?15) phi_x?17 -2) 0))
                      (and (is_int (/ y?19 2)) (<= (- y?19) 0)
                             (= (+ (- phi_x?15) phi_x?17 2) 0)))
                (or (<= y?19 0)
                      (and (<= (- rem?14) 0)
                             (or (<= (+ rem?14 1) 0) (<= (+ (- rem?14) 1) 0))
                             (or (<= (+ rem?14 -1) 0) (<= (+ rem?14 1) 0))
                             (is_int (/ (+ y?19 (- rem?14)) 2)))
                      (and (is_int (/ y?19 2)) (<= (- y?19) 0)))
                (or (and (or (<= y?19 0)
                               (and (<= (- rem?13) 0)
                                      (or (<= (+ rem?13 1) 0)
                                            (<= (+ (- rem?13) 1) 0))
                                      (or (<= (+ rem?13 -1) 0)
                                            (<= (+ rem?13 1) 0))
                                      (is_int (/ (+ y?19 (- rem?13)) 2))))
                           (= (+ (- phi_x?12) phi_x?15) 0))
                      (and (is_int (/ y?19 2)) (<= (- y?19) 0)
                             (= (+ (- phi_x?12) phi_x?15 4) 0)))
                (or (<= y?19 0)
                      (and (<= (- rem?11) 0)
                             (or (<= (+ rem?11 1) 0) (<= (+ (- rem?11) 1) 0))
                             (or (<= (+ rem?11 -1) 0) (<= (+ rem?11 1) 0))
                             (is_int (/ (+ y?19 (- rem?11)) 2)))
                      (and (is_int (/ y?19 2)) (<= (- y?19) 0)))
                (or (and (or (<= y?19 0)
                               (and (<= (- rem?10) 0)
                                      (or (<= (+ rem?10 1) 0)
                                            (<= (+ (- rem?10) 1) 0))
                                      (or (<= (+ rem?10 -1) 0)
                                            (<= (+ rem?10 1) 0))
                                      (is_int (/ (+ y?19 (- rem?10)) 2))))
                           (= (+ (- phi_x?9) phi_x?12 -2) 0))
                      (and (is_int (/ y?19 2)) (<= (- y?19) 0)
                             (= (+ (- phi_x?9) phi_x?12 4) 0)))
                (or (and (or (<= y?19 0)
                               (and (<= (- rem?8) 0)
                                      (or (<= (+ rem?8 1) 0)
                                            (<= (+ (- rem?8) 1) 0))
                                      (or (<= (+ rem?8 -1) 0)
                                            (<= (+ rem?8 1) 0))
                                      (is_int (/ (+ y?19 (- rem?8)) 2))))
                           (= (+ (- phi_x?7) phi_x?9 4) 0))
                      (and (is_int (/ y?19 2)) (<= (- y?19) 0)
                             (= (+ (- phi_x?7) phi_x?9 2) 0)))
                (or (<= y?19 0)
                      (and (<= (- rem?6) 0)
                             (or (<= (+ rem?6 1) 0) (<= (+ (- rem?6) 1) 0))
                             (or (<= (+ rem?6 -1) 0) (<= (+ rem?6 1) 0))
                             (is_int (/ (+ y?19 (- rem?6)) 2)))
                      (and (is_int (/ y?19 2)) (<= (- y?19) 0)))
                (or (and (or (<= y?19 0)
                               (and (<= (- rem?5) 0)
                                      (or (<= (+ rem?5 1) 0)
                                            (<= (+ (- rem?5) 1) 0))
                                      (or (<= (+ rem?5 -1) 0)
                                            (<= (+ rem?5 1) 0))
                                      (is_int (/ (+ y?19 (- rem?5)) 2))))
                           (= (+ (- phi_x?4) phi_x?7 -2) 0))
                      (and (is_int (/ y?19 2)) (<= (- y?19) 0)
                             (= (+ (- phi_x?4) phi_x?7 4) 0)))
                (or (and (or (<= y?19 0)
                               (and (<= (- rem?3) 0)
                                      (or (<= (+ rem?3 1) 0)
                                            (<= (+ (- rem?3) 1) 0))
                                      (or (<= (+ rem?3 -1) 0)
                                            (<= (+ rem?3 1) 0))
                                      (is_int (/ (+ y?19 (- rem?3)) 2))))
                           (= (+ (- phi_x?2) phi_x?4 -4) 0))
                      (and (is_int (/ y?19 2)) (<= (- y?19) 0)
                             (= (+ (- phi_x?2) phi_x?4 2) 0)))
                (= (+ |x'?1| (- phi_x?2)) 0)
                (= term_to_project_onto (+ |x'?1| (- x?20))))))
(check-sat)
